
Gurobi 10.0.2 (win64, Python) logging started Sun Feb  4 16:21:21 2024

Set parameter Username
Set parameter LogFile to value "C:\Users\ghadi\Downloads\Discrete Optimization Project - Gurobi- Instance 7\Discrete Optimization Project - Instance 7-Log File.log"
Academic license - for non-commercial use only - expires 2024-07-07
Set parameter Threads to value 1
Set parameter Presolve to value 1
Set parameter Method to value 0
Set parameter TimeLimit to value 1200
Set parameter PreSparsify to value 1
Gurobi Optimizer version 10.0.2 build v10.0.2rc0 (win64)

CPU model: 12th Gen Intel(R) Core(TM) i5-1235U, instruction set [SSE2|AVX|AVX2]
Thread count: 10 physical cores, 12 logical processors, using up to 1 threads

Optimize a model with 324006 rows, 34263 columns and 737730 nonzeros
Model fingerprint: 0x31b13891
Variable types: 0 continuous, 34263 integer (34263 binary)
Coefficient statistics:
  Matrix range     [1e+00, 1e+00]
  Objective range  [4e-04, 3e+00]
  Bounds range     [1e+00, 1e+00]
  RHS range        [1e+00, 1e+00]
Sparsify removed 1277 nonzeros (0%)
Presolve removed 116414 rows and 19044 columns
Presolve time: 2.64s
Presolved: 207592 rows, 15219 columns, 645965 nonzeros
Variable types: 0 continuous, 15219 integer (15202 binary)
Root relaxation presolved: 15219 rows, 222811 columns, 661184 nonzeros


Root relaxation: objective 0.000000e+00, 3814 iterations, 1.08 seconds (1.33 work units)

    Nodes    |    Current Node    |     Objective Bounds      |     Work
 Expl Unexpl |  Obj  Depth IntInf | Incumbent    BestBd   Gap | It/Node Time

     0     0    0.00000    0  201          -    0.00000      -     -    9s
     0     0    0.00000    0  484          -    0.00000      -     -   19s
     0     0    0.00000    0  518          -    0.00000      -     -   25s
     0     0    0.00000    0  556          -    0.00000      -     -   44s
     0     0    0.00000    0  595          -    0.00000      -     -   55s
     0     0    0.00000    0  615          -    0.00000      -     -   76s
     0     0    0.00000    0  624          -    0.00000      -     -   86s
     0     0    0.00000    0  625          -    0.00000      -     -  105s
     0     0    0.00000    0  624          -    0.00000      -     -  116s
     0     0    0.00000    0  634          -    0.00000      -     -  135s
     0     0    0.00000    0  653          -    0.00000      -     -  149s
     0     0    0.00000    0  624          -    0.00000      -     -  168s
     0     0    0.00000    0  624          -    0.00000      -     -  176s
H    0     0                      19.4838824    0.00000   100%     -  194s
     0     2    0.00000    0  624   19.48388    0.00000   100%     -  211s
     3     5    0.00000    3  486   19.48388    0.00000   100%   907  216s
     5     7    0.00000    5  427   19.48388    0.00000   100%   752  221s
H    7     7                      18.8990436    0.00000   100%   693  275s
     8    10    0.15523    7  532   18.89904    0.00000   100%  5457  305s
     9    11    0.00000    7  430   18.89904    0.00000   100%  5286  313s
    10    12    0.00000    8  383   18.89904    0.00000   100%  4796  315s
    11    13    0.09293    8  528   18.89904    0.00000   100%  4816  331s
    12    14    0.00000    9  437   18.89904    0.00000   100%  4765  337s
    14    16    0.00000   11  394   18.89904    0.00000   100%  4158  341s
    15    17    0.00000   12  444   18.89904    0.00000   100%  4078  346s
    17    19    0.00000   14  388   18.89904    0.00000   100%  3647  350s
    18    20    0.00000   15  387   18.89904    0.00000   100%  3478  355s
    20    22    0.00000   17  400   18.89904    0.00000   100%  3202  362s
    21    23    0.00000   18  398   18.89904    0.00000   100%  3131  365s
    22    24    0.16295   18  541   18.89904    0.00000   100%  3937  401s
    24    26    0.02771   19  557   18.89904    0.00000   100%  4459  443s
    25    27    0.17504   20  598   18.89904    0.00000   100%  5254  484s
    26    28    0.00000   20  380   18.89904    0.00000   100%  5067  485s
    28    30    0.00000   22  382   18.89904    0.00000   100%  4740  491s
    30    32    0.03511   23  561   18.89904    0.00000   100%  5278  528s
    31    33    0.03085   24  576   18.89904    0.00000   100%  5722  551s
    32    34    0.00000   24  421   18.89904    0.00000   100%  5662  556s
    34    36    0.00000   26  398   18.89904    0.00000   100%  5359  560s
    35    37    0.08713   26  592   18.89904    0.00000   100%  5689  588s
    36    38    0.07415   27  677   18.89904    0.00000   100%  6323  647s
    37    39    0.00000   27  391   18.89904    0.00000   100%  6244  652s
    39    41    0.10648   28  611   18.89904    0.00000   100%  6475  679s
    40    42    0.04351   29  655   18.89904    0.00000   100%  6924  721s
    41    43    0.00000   29  427   18.89904    0.00000   100%  6847  725s
    43    45    0.00589   31  481   18.89904    0.00000   100%  6705  753s
    45    47    0.00000   32  372   18.89904    0.00000   100%  6426  756s
    46    48    0.00062   33  516   18.89904    0.00000   100%  6485  771s
    48    50    0.21221   34  630   18.89904    0.00000   100%  6576  801s
    49    51    0.00097   34  538   18.89904    0.00000   100%  6564  810s
    51    53    0.29147   36  660   18.89904    0.00000   100%  6640  833s
    52    54    0.00097   36  486   18.89904    0.00000   100%  6615  841s
    54    56    0.33145   38  597   18.89904    0.00000   100%  6628  862s
    55    57    0.00097   38  490   18.89904    0.00000   100%  6583  868s
    56    58    0.00097   39  477   18.89904    0.00000   100%  6525  873s
    57    59    0.19489   40  495   18.89904    0.00000   100%  6610  901s
    58    60    0.17226   40  490   18.89904    0.00000   100%  6681  917s
    59    61    0.31691   41  602   18.89904    0.00000   100%  6627  932s
    60    62    0.20639   41  534   18.89904    0.00000   100%  6590  938s
    61    63    0.34684   42  547   18.89904    0.00000   100%  6595  947s
    62    64    0.39376   42  544   18.89904    0.00000   100%  6711  969s
    63    65    0.35276   43  589   18.89904    0.00000   100%  6648  977s
    64    66    0.37265   43  544   18.89904    0.00000   100%  6599  982s
    65    67    0.35952   44  642   18.89904    0.00000   100%  6563  988s
    66    68    0.40015   44  611   18.89904    0.00000   100%  6573  997s
    67    69    0.36012   45  557   18.89904    0.00000   100%  6496 1000s
    69    71    0.36394   46  552   18.89904    0.00000   100%  6366 1007s
    70    72    0.36172   47  548   18.89904    0.00000   100%  6303 1010s
    71    73    1.30034   47  751   18.89904    0.00000   100%  6385 1023s
    72    74    0.36692   48  561   18.89904    0.00000   100%  6328 1029s
    73    75    0.36230   48  544   18.89904    0.00000   100%  6254 1031s
    75    77    0.36738   49  533   18.89904    0.00000   100%  6142 1039s
    76    78    0.36722   50  540   18.89904    0.00000   100%  6096 1043s
    77    79    1.34776   50  815   18.89904    0.00000   100%  6191 1059s
    78    80    0.37224   51  551   18.89904    0.00000   100%  6146 1062s
    79    81    0.36850   51  539   18.89904    0.00000   100%  6092 1065s
    80    82    0.37293   52  550   18.89904    0.00000   100%  6057 1070s
    81    83    0.36996   52  544   18.89904    0.00000   100%  6008 1075s
    82    84    1.32850   53  775   18.89904    0.00000   100%  6080 1111s
    83    85    1.39337   53  726   18.89904    0.00000   100%  6150 1123s
    84    86    1.34913   54  934   18.89904    0.00000   100%  6104 1127s
    85    87    1.99262   54  954   18.89904    0.00000   100%  6151 1141s
    86    88    1.35269   55  966   18.89904    0.00000   100%  6091 1145s
    87    89    2.11573   55  797   18.89904    0.00000   100%  6120 1156s
    88    90    1.40196   56  889   18.89904    0.00000   100%  6080 1163s
    89    91    2.14747   56  912   18.89904    0.00000   100%  6114 1175s
    91    93    1.80580   57 1014   18.89904    0.00000   100%  6063 1192s
    92    94    1.43665   58  952   18.89904    0.00000   100%  6016 1196s

Cutting planes:
  Clique: 13
  MIR: 6
  RLT: 350
  BQP: 1

Explored 93 nodes (620435 simplex iterations) in 1200.03 seconds (3957.31 work units)
Thread count was 1 (of 12 available processors)

Solution count 2: 18.899 19.4839 

Time limit reached
Best objective 1.889904357067e+01, best bound 0.000000000000e+00, gap 100.0000%
